c colouring generated by benchmark framework
p edge 300 21633
v 1 44
v 2 22
v 3 14
v 4 15
v 5 4
v 6 49
v 7 30
v 8 40
v 9 5
v 10 51
v 11 40
v 12 45
v 13 33
v 14 48
v 15 10
v 16 40
v 17 47
v 18 47
v 19 28
v 20 32
v 21 19
v 22 35
v 23 7
v 24 35
v 25 21
v 26 16
v 27 42
v 28 35
v 29 8
v 30 25
v 31 9
v 32 3
v 33 30
v 34 11
v 35 27
v 36 7
v 37 26
v 38 23
v 39 31
v 40 24
v 41 12
v 42 41
v 43 49
v 44 12
v 45 5
v 46 20
v 47 6
v 48 29
v 49 13
v 50 11
v 51 35
v 52 25
v 53 0
v 54 0
v 55 2
v 56 25
v 57 1
v 58 22
v 59 10
v 60 43
v 61 45
v 62 12
v 63 37
v 64 31
v 65 6
v 66 46
v 67 5
v 68 3
v 69 17
v 70 35
v 71 8
v 72 3
v 73 41
v 74 31
v 75 32
v 76 34
v 77 19
v 78 14
v 79 28
v 80 8
v 81 9
v 82 24
v 83 50
v 84 28
v 85 4
v 86 13
v 87 36
v 88 21
v 89 35
v 90 53
v 91 40
v 92 22
v 93 44
v 94 27
v 95 26
v 96 4
v 97 23
v 98 32
v 99 18
v 100 27
v 101 38
v 102 46
v 103 23
v 104 1
v 105 15
v 106 38
v 107 36
v 108 36
v 109 19
v 110 50
v 111 37
v 112 10
v 113 1
v 114 9
v 115 1
v 116 3
v 117 36
v 118 22
v 119 3
v 120 2
v 121 26
v 122 5
v 123 11
v 124 2
v 125 27
v 126 12
v 127 2
v 128 18
v 129 42
v 130 0
v 131 17
v 132 41
v 133 7
v 134 15
v 135 31
v 136 18
v 137 5
v 138 11
v 139 29
v 140 16
v 141 2
v 142 33
v 143 21
v 144 28
v 145 10
v 146 17
v 147 23
v 148 32
v 149 18
v 150 30
v 151 48
v 152 0
v 153 37
v 154 6
v 155 20
v 156 32
v 157 19
v 158 7
v 159 38
v 160 19
v 161 40
v 162 10
v 163 40
v 164 39
v 165 6
v 166 5
v 167 12
v 168 45
v 169 34
v 170 11
v 171 38
v 172 10
v 173 6
v 174 21
v 175 13
v 176 19
v 177 33
v 178 18
v 179 26
v 180 8
v 181 26
v 182 42
v 183 37
v 184 4
v 185 9
v 186 0
v 187 14
v 188 18
v 189 46
v 190 31
v 191 34
v 192 13
v 193 16
v 194 13
v 195 25
v 196 29
v 197 31
v 198 11
v 199 1
v 200 18
v 201 20
v 202 21
v 203 13
v 204 9
v 205 0
v 206 29
v 207 25
v 208 30
v 209 2
v 210 13
v 211 14
v 212 0
v 213 44
v 214 51
v 215 47
v 216 4
v 217 12
v 218 7
v 219 7
v 220 26
v 221 24
v 222 15
v 223 4
v 224 20
v 225 17
v 226 52
v 227 16
v 228 32
v 229 37
v 230 22
v 231 38
v 232 27
v 233 15
v 234 30
v 235 36
v 236 18
v 237 51
v 238 29
v 239 28
v 240 24
v 241 8
v 242 34
v 243 23
v 244 1
v 245 15
v 246 14
v 247 20
v 248 21
v 249 24
v 250 10
v 251 37
v 252 34
v 253 16
v 254 52
v 255 1
v 256 53
v 257 33
v 258 52
v 259 20
v 260 2
v 261 8
v 262 43
v 263 21
v 264 3
v 265 33
v 266 5
v 267 30
v 268 3
v 269 53
v 270 25
v 271 3
v 272 45
v 273 17
v 274 0
v 275 9
v 276 12
v 277 14
v 278 42
v 279 44
v 280 14
v 281 4
v 282 27
v 283 32
v 284 41
v 285 4
v 286 39
v 287 17
v 288 36
v 289 17
v 290 6
v 291 16
v 292 33
v 293 29
v 294 39
v 295 24
v 296 15
v 297 17
v 298 48
v 299 25
v 300 35
